
Route #1: 40 29 35 37 39 22 42 52 7 2 
Route #2: 8 53 12 56 18 41 34 25 24 
Route #3: 54 4 55 23 46 27 33 13 48 16 51 
Route #4: 26 38 36 28 44 21 45 15 11 1 
Route #5: 10 49 14 50 30 
Route #6: 32 43 20 47 17 19 9 
Route #7: 5 3 6 31 
cost 1649.42
total time is 5.3